10 6 15 4 18 14 11 17 12 7 8 9 13 16 5 2 0 1 3 19  
10 6 15 4 18 14 11 0 12 5 9 19 7 8 1 17 2 13 16 3  
10 6 15 4 18 14 11 17 12 5 8 9 13 16 7 2 0 1 3 19  
10 6 15 4 11 18 14 0 12 9 19 7 8 5 17 1 2 13 16 3  
10 6 15 4 14 12 0 8 11 5 9 19 7 18 1 17 2 13 16 3  
10 6 15 4 14 12 0 8 11 5 9 19 18 7 1 17 2 13 16 3  
10 6 15 4 18 14 12 17 8 11 5 9 19 2 13 16 0 7 3 1  
10 6 15 4 14 12 0 11 18 5 9 19 7 8 17 1 2 13 16 3  
10 6 15 4 18 14 11 7 9 19 12 8 0 13 16 5 17 1 2 3  
10 6 15 4 18 14 11 0 12 9 19 7 8 5 2 1 17 13 16 3  
10 6 15 4 14 12 0 8 11 5 18 9 19 16 17 1 7 13 2 3  
10 6 15 4 18 14 11 5 9 12 0 19 8 2 17 1 7 13 16 3  
10 6 15 4 14 11 0 8 12 5 18 9 13 16 17 1 7 2 3 19  
10 6 15 4 18 14 11 0 12 9 19 8 7 5 2 17 1 13 16 3  
10 6 15 4 18 14 12 17 8 11 5 9 19 2 0 1 7 3 13 16  
10 6 15 4 14 12 0 8 11 5 18 9 19 16 17 1 7 2 13 3  
10 6 15 4 14 11 0 8 12 5 9 19 16 18 17 2 13 7 3 1  
10 6 15 4 14 12 0 8 11 5 18 9 19 16 17 1 7 2 13 3  
10 6 15 4 18 14 12 17 8 11 5 9 19 2 13 16 0 7 1 3  
10 6 15 4 18 14 11 12 17 5 8 9 13 16 7 2 0 1 3 19  
10 6 15 4 18 14 12 17 8 11 5 9 19 2 13 16 0 1 3 7  
10 6 15 4 18 14 12 17 8 11 5 9 19 2 13 16 0 3 1 7  
10 6 15 4 18 14 11 0 12 9 19 8 17 1 7 13 16 5 2 3  
10 6 15 4 18 14 12 17 8 11 5 9 19 2 13 16 0 1 3 7  
10 6 15 4 14 12 0 8 11 5 9 18 19 7 17 1 2 13 16 3  
10 6 15 4 14 12 0 8 11 5 18 9 19 16 17 1 7 2 13 3  
10 6 15 4 18 14 12 17 8 11 5 9 19 2 13 16 0 3 1 7  
10 6 15 4 18 14 12 17 8 11 5 9 19 2 7 16 0 3 1 13  
10 6 15 4 18 14 12 17 11 8 5 9 19 7 0 1 2 13 16 3  
10 6 15 4 14 12 0 11 18 5 9 19 7 8 17 1 2 13 16 3  
6 4 10 18 14 11 0 8 12 5 9 19 16 17 15 7 3 1 2 13  
10 6 15 4 14 11 0 8 12 5 9 19 7 18 1 17 13 2 16 3  
10 6 15 4 14 12 0 11 5 18 9 19 17 8 1 7 2 13 16 3  
10 6 15 4 14 12 0 8 11 5 18 9 19 16 17 1 7 13 2 3  
10 6 15 4 18 14 12 0 8 11 5 9 19 2 13 16 17 1 7 3  
10 6 15 4 18 14 11 17 8 12 5 9 19 16 0 1 7 2 3 13  
